15
2 1 4
3 1 5
3 2 3
4 1 1
5 1 4
5 2 4
5 3 4
6 2 3
6 4 5
6 5 5
7 1 2
7 2 1
7 6 4
8 1 5
8 2 4
8 4 2
8 5 5
8 6 2
8 7 5
9 1 5
9 4 5
9 7 2
10 0 3
10 2 3
10 3 4
10 6 1
10 7 4
10 8 1
10 9 3
11 1 2
11 4 2
11 7 4
11 8 3
11 10 3
12 1 5
12 2 4
12 3 4
12 4 2
12 5 2
12 7 1
12 8 1
12 9 4
12 10 2
13 0 3
13 1 1
13 3 5
13 4 3
13 5 4
13 6 1
13 8 1
13 11 1
13 12 2
14 0 1
14 1 2
14 2 4
14 11 1
